NAME : pr226
TYPE : OP
DIMENSION : 226
COST_LIMIT : 40185
ROUTE_NODES : 113
ROUTE_SCORE : 6908
ROUTE_COST : 40180
NODE_SEQUENCE_SECTION
1
2
3
4
8
11
16
17
65
59
60
61
62
63
95
87
89
96
97
88
90
98
99
91
92
100
101
93
94
102
137
144
146
138
139
145
147
140
141
149
148
142
143
150
171
172
173
174
175
176
177
178
179
180
181
182
183
184
185
186
187
188
189
190
191
192
193
194
195
196
197
198
199
200
201
202
203
204
205
206
207
208
209
210
211
212
213
214
215
216
125
132
130
124
123
131
129
122
121
127
128
120
119
126
110
109
108
116
115
114
113
112
111
-1
DEPOT_SECTION
1
-1
EOF
